(declare-const a Real)
(declare-const b Real)
(declare-const c Real)
(assert (= (* a b c) 1))
(assert (> a 0))
(assert (> b 0))
(assert (> c 0))
(assert (not (<= (+ (* -904881152 (pow b 4)) (* -694117376 (pow a 4)) (* -1811939328 (pow a (pow 3 -1)) (pow b (/ 11 3))) (* -905969664 (pow a (/ 10 3)) (pow b (/ 2 3))) (* 416232 (pow (+ (* 2 a) (* 2 b)) 3) (pow (+ (* 8 (pow a 2)) (* 8 (pow b 2))) (/ 1 2))) (* 988442624 b (pow a 3)) (* 3221909504 a (pow b 3))) 0)))
(check-sat)
(get-model)
(exit)